
  32    1
  10

   0   0  11 2 3 4 5 6 7 10 12 13 14 19 
   4   1   7 31 30 22 21 16 11 8 
   1   1   6 30 29 27 20 16 8 
   1   1   5 21 20 18 17 9 
   3   2   5 27 26 22 20 8 
   6   3   5 29 28 27 16 9 
   5   2   3 29 11 9 
   4   2   2 28 9 
  10   2   2 24 15 
   6   2   2 23 16 
   4   2   3 27 25 23 
   6   2   3 26 24 23 
   3   2   3 25 24 23 
   1   1   2 27 21 
   6   3   2 25 23 
   8   3   2 26 24 
   4   1   2 28 26 
   3   1   2 27 25 
   8   3   2 26 24 
   4   2   1 28 
   1   2   1 23 
   6   1   1 28 
   9   1   1 32
  10   2   1 32
   8   3   1 32
  10   2   1 32
   6   1   1 32
   9   7   1 32
   3   2   1 32
   7   1   1 32
   4   2   1 32
   0   0   0 
